NAME : M-n121-k7.682119.tour
COMMENT : Length = 682119
COMMENT : Found by LKH [Keld Helsgaun] Wed May  9 11:41:29 2018
TYPE : TOUR
DIMENSION : 127
TOUR_SECTION
1
104
68
70
71
72
75
73
76
79
81
80
78
77
74
69
123
105
53
54
55
58
60
66
62
63
65
67
64
61
59
56
57
125
89
3
2
4
5
6
7
8
10
11
12
16
15
14
13
9
126
110
22
27
24
21
18
17
20
26
23
25
28
34
31
32
29
33
36
35
37
30
122
121
120
82
118
84
114
85
113
86
90
93
92
91
115
19
119
109
124
96
41
44
46
49
52
51
50
47
48
45
42
43
40
39
38
127
83
112
87
88
94
97
95
98
116
111
99
117
101
100
102
103
106
107
108
-1
EOF
